326,350
491,216
927,67
681,-74
1069,124
795,369
738,424
681,496
609,458
366,635
474,374
561,406
575,352
597,322
282,535
552,805
799,388
891,406
947,599
524,891
602,909
491,780
708,491
1125,476
799,388
795,369
738,424
708,491
646,454
575,352
491,216
342,67
168,240
326,350
474,374
561,406
681,496
947,599
1108,623
